(set-info :smt-lib-version 2.7)
(set-logic ALL)
(set-info :source |
Generated on: 2026-06-22
Generator: pog2smtlib-2.7 github.com/CLEARSY/pog2smtlib-2.7 (-l HO_ALL -rpX)
Application: Discharging a proof obligation generated by aTelierB from an anonymized B machine
Target solver: CVC5 (--mbqi --enum-inst)
Time limit: 1200.0
|)
(set-info :license "www.gnu.org/licenses/gpl-3.0.en.html")
(set-info :category "industrial")
(set-info :status unknown)

(define-sort |Z| () Int)
(declare-sort P 1)
(define-sort |POW Z| () (P |Z|))
(define-sort |BOOL| () Bool)
(declare-fun |set.in Z| (|Z| |POW Z|) Bool)
(declare-const s450 |Z|)
(declare-const s451 |Z|)
(declare-const s449$1 |Z|)
(declare-const s450$1 |Z|)
(declare-const s456 |POW Z|)
(declare-const s451$1 |Z|)
(declare-const s453 |Z|)
(declare-const s452 |Z|)
(declare-const s454 |POW Z|)
(declare-const s446$1 |BOOL|)
(declare-const s446 |BOOL|)
(declare-const s458 |POW Z|)
(declare-const s452$1 |Z|)
(declare-const s449 |Z|)
(declare-const |set.empty Z| |POW Z|)
(assert (!
  (forall ((e |Z|)) (not (|set.in Z| e |set.empty Z|)))
  :named |ax.set.in.empty Z|))
(declare-const NATURAL |POW Z|)
(assert (!
  (forall ((e |Z|)) (= (|set.in Z| e NATURAL) (<= 0 e)))
  :named |ax.set.in.NATURAL|))
(declare-fun |interval| (|Z| |Z|) |POW Z|)
 (assert (!
    (forall ((l |Z|) (u |Z|) (e |Z|))
        (= (|set.in Z| e (|interval| l u))
            (and (<= l e) (<= e u))))
    :named |ax.set.in.interval|))
(assert (!
  (forall ((s |POW Z|) (t |POW Z|))
    (=
      (= s t)
      (forall ((e |Z|)) (= (|set.in Z| e s) (|set.in Z| e t)))))
  :named |ax.set.eq Z|))
(declare-const NATURAL1 |POW Z|)
(assert (!
  (forall ((e |Z|)) (= (|set.in Z| e NATURAL1) (<= 1 e)))
  :named |ax.set.in.NATURAL1|))
(declare-fun |set.subseteq Z| (|POW Z| |POW Z|) Bool)
(assert (!
    (forall ((s |POW Z|) (t |POW Z|))
      (=
        (|set.subseteq Z| s t)
        (forall ((e |Z|)) (=> (|set.in Z| e s) (|set.in Z| e t)))
      )
    )
    :named |ax.set.subseteq Z|))
(assert (!
  (= s446$1 (= s453 0))
  :named |Define:abs:12|))
(assert (!
  (= s446 s446$1)
  :named |Define:inv:0|))
(assert (!
  (= s454 (|interval| (+ s453 s449$1) (- (+ s453 s450$1) 1)))
  :named |Define:abs:13|))
(assert (!
  (exists
  ((s455 |Z|))
  (and
    (|set.in Z| s455 NATURAL)
    (<= s455 s453)
    (= s456 (|interval| s455 (- (+ s453 s451$1) 1)))))
  :named |Define:abs:14|))
(assert (!
  (exists
  ((s457 |Z|))
  (and
    (|set.in Z| s457 NATURAL)
    (<= s457 s453)
    (= s458 (|interval| s457 (- (+ s453 s452$1) 1)))))
  :named |Define:abs:15|))
(assert (!
  (|set.in Z| s453 NATURAL)
  :named |Define:abs:20|))
(assert (!
  (=>
  (= s453 0)
  (and
    (= s454 |set.empty Z|)
    (= s456 |set.empty Z|)
    (= s458 |set.empty Z|)))
  :named |Define:abs:25|))
(assert (!
  (<= s449$1 s450$1)
  :named |Define:abs:9|))
(assert (!
  (<= s451$1 s450$1)
  :named |Define:abs:10|))
(assert (!
  (<= s449$1 s451$1)
  :named |Define:abs:11|))
(assert (!
  (|set.subseteq Z| s454 NATURAL1)
  :named |Define:abs:22|))
(assert (!
  (|set.subseteq Z| s456 NATURAL1)
  :named |Define:abs:23|))
(assert (!
  (|set.subseteq Z| s458 NATURAL1)
  :named |Define:abs:24|))
(assert (!
  (= s449 s449$1)
  :named |Define:inv:1|))
(assert (!
  (= s450 s450$1)
  :named |Define:inv:2|))
(assert (!
  (= s451 s451$1)
  :named |Define:inv:3|))
(assert (!
  (= s452 s452$1)
  :named |Define:inv:4|))
(assert (!
  (not
    (= s446$1 false))
  :named |Goal|))
(check-sat)
(exit)
